 $CONTRL RUNTYP=OPTIMIZE DFTTYP=NONE EXETYP=RUN MAXIT=200 $END
 $SYSTEM MWORDS=2000 TIMLIM=1368 $END
 $BASIS GBASIS=RM1 $END
 $STATPT OPTTOL=0.0005 HESS=CALC NSTEP=400 $END
 $DFT DC=.TRUE. IDCVER=3 $END
 $DATA
